qbf_easy_train/easy_3982_SAT.qdimacs
p cnf 27 68
a 10 18 5 0
e 1 2 3 4 6 7 8 9 11 12 13 14 15 16 17 19 20 21 22 23 24 25 26 27 0
2 1 0
2 -1 0
3 4 -5 0
-3 -4 -5 0
3 -4 5 0
-3 4 5 0
5 1 -6 0
-5 -1 -6 0
5 -1 6 0
-5 1 6 0
7 -6 0
7 -1 0
6 1 -7 0
1 -8 -9 0
-1 8 -9 0
1 8 9 0
-1 -8 9 0
10 -9 0
10 -1 0
9 1 -10 0
-12 11 0
-12 -4 0
-11 4 12 0
13 -10 0
13 -12 0
10 12 -13 0
14 7 0
14 -13 0
-7 13 -14 0
15 -2 0
15 14 0
2 -14 -15 0
17 16 0
17 6 0
-16 -6 -17 0
-19 -18 0
-19 5 0
18 -5 19 0
-20 11 0
-20 -3 0
-11 3 20 0
20 21 -22 0
-20 -21 -22 0
20 -21 22 0
-20 21 22 0
-19 22 -23 0
19 -22 -23 0
-19 -22 23 0
19 22 23 0
-24 -17 0
-24 -23 0
17 23 24 0
25 -15 0
25 24 0
15 -24 -25 0
-26 -20 0
-26 3 0
20 -3 26 0
-27 25 0
-27 -26 0
-25 26 27 0
-19 23 -17 7 8 14 11 15 0
-15 8 23 -12 0
16 19 -25 -10 0
-4 1 9 17 16 7 0
-16 -12 -27 24 -17 -11 0
-21 -14 -4 -22 -26 27 0
27 0
