sat_easy_train/easy_3982_SAT.dimacs
p cnf 88 282
3 1 0
3 -2 0
-1 2 -3 0
4 5 -6 0
-4 -5 -6 0
4 -5 6 0
-4 5 6 0
-8 6 0
-8 -7 0
-6 7 8 0
-3 -8 -9 0
3 8 -9 0
-3 8 9 0
3 -8 9 0
-13 -11 0
-13 12 0
11 -12 13 0
-14 13 0
-14 -11 0
-13 11 14 0
-15 10 0
-15 14 0
-10 -14 15 0
-17 -16 0
-17 4 0
16 -4 17 0
5 -20 -21 0
-5 20 -21 0
5 20 21 0
-5 -20 21 0
19 21 -22 0
-19 -21 -22 0
19 -21 22 0
-19 21 22 0
-23 22 0
-23 -5 0
-22 5 23 0
-24 -18 0
-24 -23 0
18 23 24 0
5 24 -25 0
-5 -24 -25 0
5 -24 25 0
-5 24 25 0
26 -17 0
26 -25 0
17 25 -26 0
15 26 -27 0
-15 -26 -27 0
15 -26 27 0
-15 26 27 0
28 -7 0
28 13 0
7 -13 -28 0
-29 28 0
-29 10 0
-28 -10 29 0
13 29 -30 0
-13 -29 -30 0
13 -29 30 0
-13 29 30 0
-31 32 -33 0
31 -32 -33 0
-31 -32 33 0
31 32 33 0
-34 2 0
-34 23 0
-2 -23 34 0
-35 4 0
-35 -34 0
-4 34 35 0
-21 -19 -36 0
21 19 -36 0
-21 19 36 0
21 -19 36 0
37 -35 0
37 36 0
35 -36 -37 0
-33 37 -38 0
33 -37 -38 0
-33 -37 38 0
33 37 38 0
7 -31 -39 0
-7 31 -39 0
7 31 39 0
-7 -31 39 0
40 -38 0
40 -39 0
38 39 -40 0
30 40 -41 0
-30 -40 -41 0
30 -40 41 0
-30 40 41 0
42 27 0
42 41 0
-27 -41 -42 0
43 -9 0
43 -42 0
9 42 -43 0
44 1 0
44 -16 0
-1 16 -44 0
-45 23 0
-45 -44 0
-23 44 45 0
-17 34 -46 0
17 -34 -46 0
-17 -34 46 0
17 34 46 0
-47 -45 0
-47 46 0
45 -46 47 0
-31 32 -48 0
31 -32 -48 0
-31 -32 48 0
31 32 48 0
49 48 0
49 -23 0
-48 23 -49 0
50 7 0
50 -25 0
-7 25 -50 0
49 -50 -51 0
-49 50 -51 0
49 50 51 0
-49 -50 51 0
52 47 0
52 -51 0
-47 51 -52 0
-53 23 0
-53 -6 0
-23 6 53 0
-55 20 0
-55 -54 0
-20 54 55 0
56 -18 0
56 -55 0
18 55 -56 0
57 53 0
57 56 0
-53 -56 -57 0
-11 2 -58 0
11 -2 -58 0
-11 -2 58 0
11 2 58 0
-59 -19 0
-59 -22 0
19 22 59 0
-11 59 -60 0
11 -59 -60 0
-11 -59 60 0
11 59 60 0
-58 60 -61 0
58 -60 -61 0
-58 -60 61 0
58 60 61 0
57 61 -62 0
-57 -61 -62 0
57 -61 62 0
-57 61 62 0
63 -45 0
63 21 0
45 -21 -63 0
64 -33 0
64 21 0
33 -21 -64 0
63 64 -65 0
-63 -64 -65 0
63 -64 65 0
-63 64 65 0
10 -59 -66 0
-10 59 -66 0
10 59 66 0
-10 -59 66 0
-67 -65 0
-67 -66 0
65 66 67 0
36 -13 -68 0
-36 13 -68 0
36 13 68 0
-36 -13 68 0
69 -67 0
69 68 0
67 -68 -69 0
14 -70 -71 0
-14 70 -71 0
14 70 71 0
-14 -70 71 0
72 -16 0
72 -34 0
16 34 -72 0
-71 72 -73 0
71 -72 -73 0
-71 -72 73 0
71 72 73 0
74 69 0
74 -73 0
-69 73 -74 0
-62 74 -75 0
62 -74 -75 0
-62 -74 75 0
62 74 75 0
35 -34 -76 0
-35 34 -76 0
35 34 76 0
-35 -34 76 0
-77 -5 0
-77 48 0
5 -48 77 0
78 77 0
78 -4 0
-77 4 -78 0
-23 -11 -79 0
23 11 -79 0
-23 11 79 0
23 -11 79 0
80 7 0
80 1 0
-7 -1 -80 0
-81 79 0
-81 -80 0
-79 80 81 0
-82 18 0
-82 10 0
-18 -10 82 0
-81 82 -83 0
81 -82 -83 0
-81 -82 83 0
81 82 83 0
84 78 0
84 83 0
-78 -83 -84 0
-85 76 0
-85 -84 0
-76 84 85 0
-86 75 0
-86 -85 0
-75 85 86 0
-87 52 0
-87 86 0
-52 -86 87 0
-88 43 0
-88 -87 0
-43 87 88 0
-14 -10 63 0
-86 41 50 28 0
46 -69 40 49 85 0
-17 16 7 -53 0
-32 35 78 -28 0
-40 -49 -42 -73 0
-27 26 0
-28 63 2 -80 0
41 -59 -66 85 -49 0
-35 -69 79 82 -26 21 0
-1 60 63 0
-19 -80 -46 13 0
76 -82 -38 -78 0
-72 57 31 0
-83 8 -31 0
33 4 0
-55 -28 80 -64 0
-56 63 0
25 -74 -32 0
-29 -21 -57 0
3 -25 -28 0
-36 -80 -15 -78 0
-54 -55 28 63 -79 11 0
-62 -36 -25 71 0
80 84 -79 50 24 0
-86 -58 -81 0
-41 -83 -20 17 29 0
33 -8 -64 54 0
-83 57 40 -87 -9 0
-87 2 -73 -41 22 66 0
-31 -76 -66 0
-84 50 25 27 0
-14 28 70 29 -65 -9 0
63 9 -66 -72 80 0
-30 20 19 33 -1 -75 0
88 -81 0
-33 -50 -47 0
88 0
